column=8;
row=8;
max=5;
left=[0, 5, 4, 1, 2, 5, 0, 0];
right=[1, 2, 3, 0, 4, 0, 2, 0];
top=[3, 4, 0, 0, 0, 1, 0, 0];
bottom=[1, 0, 0, 1, 0, 2, 4, 5];
Board=[|3,4,0,0,0,0,0,0|0,0,5,4,3,1,0,0|4,0,2,5,0,0,1,3|0,1,0,0,5,3,0,2|0,0,0,3,1,0,0,4|0,5,0,2,0,4,3,0|0,3,0,1,0,2,0,0|0,0,3,0,0,0,4,5|]